45
2 1 9
3 1 3
3 2 4
4 1 4
4 3 6
5 0 8
5 2 6
5 3 2
6 0 8
6 2 5
6 3 5
7 0 4
7 1 5
7 3 7
7 4 8
7 6 3
8 3 7
8 4 6
8 5 4
9 0 6
9 1 6
9 2 10
9 5 9
9 7 10
10 0 8
10 3 7
10 5 6
10 7 1
10 8 9
11 0 4
11 3 3
11 6 1
11 8 5
11 10 10
12 2 9
12 3 4
12 5 7
12 7 1
12 9 5
12 11 9
13 0 9
13 2 2
13 4 7
13 7 8
13 9 6
13 12 10
14 0 5
14 2 7
14 4 10
14 5 1
14 6 1
14 7 1
14 8 10
14 9 9
14 11 10
15 1 9
15 2 7
15 3 7
15 4 3
15 5 3
15 6 8
15 8 9
15 9 1
15 11 9
15 13 10
16 4 7
16 7 10
16 10 2
16 13 7
17 1 7
17 2 1
17 3 4
17 5 6
17 6 3
17 8 10
17 11 6
17 13 1
17 15 4
18 3 9
18 4 8
18 6 6
18 7 6
18 8 9
18 10 9
18 11 5
18 12 6
18 13 4
18 14 8
18 15 2
18 16 7
18 17 9
19 3 8
19 4 1
19 6 5
19 7 3
19 10 5
19 11 10
19 12 2
19 17 1
20 0 10
20 3 1
20 4 6
20 6 7
20 10 9
20 11 5
20 13 5
20 14 5
20 16 7
20 17 2
21 0 3
21 1 10
21 2 8
21 3 3
21 6 3
21 8 3
21 9 1
21 10 1
21 11 9
21 12 5
21 14 1
21 15 2
21 16 5
21 19 6
22 0 8
22 1 1
22 3 1
22 6 3
22 8 7
22 10 1
22 11 6
22 13 6
22 14 5
22 15 7
22 16 2
22 19 10
23 3 1
23 9 4
23 11 7
23 12 3
23 14 5
23 15 6
23 16 1
23 17 5
23 18 6
24 3 9
24 4 3
24 5 8
24 6 4
24 7 3
24 8 6
24 9 2
24 12 8
24 15 4
24 16 4
24 17 7
24 21 2
24 22 4
25 1 7
25 2 2
25 7 9
25 10 5
25 13 5
25 14 6
25 16 2
25 24 3
26 6 2
26 8 9
26 10 9
26 11 1
26 12 5
26 14 3
26 15 6
26 16 7
26 20 10
26 22 8
27 0 10
27 1 2
27 3 8
27 5 6
27 6 5
27 11 3
27 17 9
27 18 9
27 19 9
27 22 2
27 23 10
27 26 9
28 0 10
28 1 1
28 3 10
28 8 9
28 9 9
28 10 4
28 12 2
28 13 4
28 15 3
28 16 2
28 18 10
28 21 9
28 23 4
28 25 10
29 0 6
29 1 8
29 2 5
29 3 5
29 4 9
29 6 1
29 7 9
29 10 8
29 11 1
29 17 2
29 18 8
29 19 2
29 20 6
29 21 7
29 24 7
29 25 8
29 26 10
29 28 5
30 0 3
30 2 9
30 3 3
30 5 2
30 6 4
30 7 4
30 8 1
30 11 4
30 16 3
30 19 2
30 20 10
30 21 3
30 23 10
30 24 4
30 29 1
31 6 1
31 7 3
31 8 8
31 10 8
31 13 1
31 14 10
31 15 5
31 17 5
31 18 10
31 19 1
31 20 5
31 23 3
31 24 2
31 28 3
31 30 1
32 3 7
32 7 3
32 11 10
32 12 9
32 13 6
32 15 2
32 21 7
32 22 8
32 25 6
32 26 9
32 27 2
33 0 9
33 7 3
33 9 4
33 10 5
33 12 4
33 14 7
33 16 5
33 19 4
33 20 9
33 21 5
33 27 5
33 28 5
33 31 10
33 32 1
34 3 9
34 4 4
34 10 2
34 11 7
34 12 4
34 13 9
34 14 1
34 15 9
34 16 4
34 17 7
34 18 6
34 25 5
34 27 8
34 31 7
35 1 1
35 3 10
35 4 3
35 15 4
35 17 6
35 18 4
35 21 10
35 26 7
35 27 3
35 29 1
35 30 2
35 34 1
36 0 10
36 2 4
36 4 9
36 10 8
36 12 9
36 13 6
36 14 8
36 15 10
36 16 3
36 17 10
36 21 9
36 22 2
36 23 4
36 27 10
36 28 4
36 29 4
36 31 10
37 1 10
37 4 4
37 8 5
37 11 4
37 13 2
37 16 4
37 17 7
37 20 10
37 22 6
37 30 5
37 32 5
37 33 7
37 35 8
38 1 8
38 2 7
38 3 10
38 4 1
38 5 4
38 8 10
38 9 1
38 10 3
38 11 2
38 13 8
38 14 5
38 16 8
38 19 9
38 30 2
38 32 9
39 0 8
39 1 8
39 2 3
39 6 8
39 11 9
39 14 6
39 16 6
39 17 2
39 19 7
39 20 7
39 21 4
39 22 8
39 25 5
39 26 1
39 27 2
39 28 2
39 29 6
39 31 10
39 36 9
39 38 5
40 0 8
40 1 9
40 2 7
40 5 9
40 7 10
40 9 4
40 10 6
40 11 9
40 12 9
40 13 7
40 16 6
40 19 3
40 22 7
40 25 4
40 26 3
40 28 5
40 30 8
40 31 10
40 34 5
40 35 5
40 36 1
40 37 5
40 39 2
41 1 10
41 3 4
41 4 2
41 6 3
41 7 4
41 9 3
41 11 6
41 13 2
41 16 8
41 18 8
41 20 6
41 23 10
41 24 8
41 26 5
41 30 8
41 32 10
41 35 3
41 38 9
42 3 10
42 4 1
42 6 8
42 7 6
42 8 1
42 9 3
42 15 5
42 18 7
42 19 10
42 21 2
42 22 10
42 23 1
42 24 1
42 25 7
42 26 9
42 29 8
42 32 6
42 33 9
42 34 3
42 35 8
42 37 5
42 38 3
42 39 8
43 0 1
43 4 4
43 7 9
43 8 2
43 10 10
43 11 6
43 13 6
43 15 6
43 16 7
43 17 6
43 19 10
43 20 8
43 22 6
43 23 1
43 24 7
43 28 3
43 30 9
43 31 3
43 32 1
43 33 10
43 35 7
43 36 3
43 37 3
43 38 5
43 39 3
43 40 4
43 41 2
44 2 7
44 6 10
44 7 7
44 8 9
44 11 1
44 12 8
44 15 2
44 17 10
44 18 7
44 20 9
44 21 1
44 22 3
44 25 3
44 26 1
44 34 2
44 35 3
44 38 4
44 40 3
44 42 7
44 43 8
